2052
843
1642
1746
1046
2287
2433
4046
2138
1604
959
1047
1813
4054
412
2520
4028
3184
3782
2190
205
2168
2477
223
3439
3793
3105
751
1133
2023
1529
2958
1158
480
1605
2444
3366
594
1687
2316
2010
2149
1220
4146
3775
1345
2904
935
671
2372
2745
3588
3916
3909
2720
2620
3224
689
325
3033
152
3243
1412
3905
2144
3943
2824
644
2306
2502
729
474
900
561
329
2226
678
1266
4147
173
3423
2349
2931
3439
3955
3688
458
3358
999
1801
1852
3650
1137
340
3150
3667
2918
1819
3155
1989
